GPU_version/outputs/r108.out
Total number of lines in the file: 110
Total number of nodes including depot: 101
Customer 1: (35, 35), Demand: 0, Time Window: [0, 230], Service Time: 0
Customer 2: (41, 49), Demand: 10, Time Window: [0, 204], Service Time: 10
Customer 3: (35, 17), Demand: 7, Time Window: [0, 202], Service Time: 10
Customer 4: (55, 45), Demand: 13, Time Window: [0, 197], Service Time: 10
Customer 5: (55, 20), Demand: 19, Time Window: [139, 169], Service Time: 10
calling MST kernel
Post Processing Route
Post 2 opt Processing Route
2-opt between 9 and 11 improved cost from 1463.39 to 1461.18
Elapsed time: 0.683448 seconds
Final Route: 
Route #1: 53 58 40 
Route #2: 26 12 80 68 29 24 77 
Route #3: 76 50 1 
Route #4: 69 3 79 78 34 33 81 
Route #5: 9 71 65 35 51 
Route #6: 54 55 25 21 
Route #7: 73 72 74 75 56 
Route #8: 23 39 67 4 22 41 
Route #9: 13 94 95 97 
Route #10: 87 2 57 
Route #11: 15 43 42 
Route #12: 92 59 99 96 5 60 83 
Route #13: 8 46 45 82 7 88 
Route #14: 31 70 30 20 66 
Route #15: 62 11 19 10 90 32 63 
Route #16: 48 47 36 49 64 18 52 
Route #17: 84 17 93 85 61 16 
Route #18: 44 14 38 86 91 37 98 100 
Route #19: 6 89 28 27 
Route #20: Total Distance: 1463.39
Final route is valid
