outputs/r108.txt.out
filename: R108
Vehicles: 25, Capacity: 200
Total customers : 101
No of routes: 16
Route #1: 53 58 40
Route #2: 26 12 68 80 54 55 25
Route #3: 24 29 77
Route #4: 76 50 1
Route #5: 69 33 81 34 78 79 3
Route #6: 51 71 65 35 9
Route #7: 21 73 72 74 75 22 41
Route #8: 56 23 67 39 4 13 94
Route #9: 95 97 92 59 99 5 84 17 60 18 52
Route #10: 83 45 8 46 47 48 82
Route #11: 7 36 49 64 88
Route #12: 62 19 11 63 90 32 10 31
Route #13: 66 20 30 70 91 85 93 96
Route #14: 61 16 86 44 38 14 100 98 37
Route #15: 87 57 2
Route #16: 15 43 42 6 89 27 28
Cost 1313
